(set-logic QF_LIA)
(set-info :ran/ran2.smt2)
(set-info :smt-lib-version 2.0)
(declare-fun x1 () Int)
(declare-fun x2 () Int)
(declare-fun x3 () Int)
(assert (<= (+ (* (- 9) x1) (* (- 1) x2) (* 5 x3) ) (- 1936)))
(assert (<= (+ (* 4 x1) (* 8 x2) (* 3 x3) ) 8902))
(assert (<= (+ (* (- 2) x1) (* (- 4) x2) (* 7 x3) ) 2794))
(assert (<= (+ (* 0 x1) (* 10 x2) (* 10 x3) ) 7472))
(assert (<= (+ (* 9 x1) (* (- 2) x2) (* 2 x3) ) (- 8085)))
(assert (<= (+ (* 0 x1) (* 10 x2) (* (- 2) x3) ) 3868))
(assert (<= (+ (* 1 x1) (* 0 x2) (* 0 x3) ) 10000))
(assert (<= (+ (* (- 1) x1) (* 0 x2) (* 0 x3) ) 10000))
(assert (<= (+ (* 0 x1) (* 1 x2) (* 0 x3) ) 10000))
(assert (<= (+ (* 0 x1) (* (- 1) x2) (* 0 x3) ) 10000))
(assert (<= (+ (* 0 x1) (* 0 x2) (* 1 x3) ) 10000))
(assert (<= (+ (* 0 x1) (* 0 x2) (* (- 1) x3) ) 10000))
